p td 40 120
5 3
6 4
8 4
9 4
10 1
11 1
12 1
13 6
14 6
14 10
15 5
15 14
16 7
16 2
17 15
17 3
18 2
18 4
19 10
20 1
21 20
22 17
22 3
22 12
22 21
22 1
22 2
23 6
23 10
23 14
23 15
23 2
24 19
24 5
24 22
24 10
25 12
25 14
25 1
25 22
26 13
26 20
26 7
26 22
27 4
27 20
27 11
28 18
28 5
28 23
28 15
28 22
28 21
28 27
29 25
29 23
29 13
29 27
29 16
29 17
29 11
29 24
30 20
30 29
30 2
30 5
30 19
30 26
30 14
31 7
32 16
32 15
32 11
32 25
32 12
33 20
33 3
33 19
33 17
33 11
34 16
34 2
34 30
34 19
34 32
34 12
34 11
34 21
34 8
35 24
35 34
35 2
35 13
36 15
36 5
36 12
36 24
37 2
37 34
38 24
38 13
38 23
38 5
38 15
38 2
38 33
38 17
39 22
39 1
39 31
39 5
39 28
39 15
39 7
39 19
40 31
40 4
40 22
40 13
40 20
